
Gurobi 12.0.2 (linux64, C++) logging started Thu Jun 19 08:00:19 2025

Set parameter LogFile to value "log/instances/scenario4/correlated_sc4/300/kpfs_1.txt.log"

Gurobi 12.0.2 (linux64, C++) logging started Thu Jun 19 08:01:42 2025

Set parameter LogFile to value "log/instances/scenario4/correlated_sc4/300/kpfs_1.txt.log"

Gurobi 12.0.2 (linux64, C++) logging started Thu Jun 19 08:02:53 2025

Set parameter LogFile to value "log/instances/scenario4/correlated_sc4/300/kpfs_1.txt.log"

Gurobi 12.0.2 (linux64, C++) logging started Thu Jun 19 08:03:57 2025

Set parameter LogFile to value "log/instances/scenario4/correlated_sc4/300/kpfs_1.txt.log"

Gurobi 12.0.2 (linux64, C++) logging started Thu Jun 19 12:37:20 2025

Set parameter WLSAccessID
Set parameter WLSSecret
Set parameter LicenseID to value 2679381
Set parameter LogFile to value "log/instances/scenario4/correlated_sc4/300/kpfs_1.txt.log"
Academic license 2679381 - for non-commercial use only - registered to be___@poli.ufrj.br
Set parameter TimeLimit to value 1800
Set parameter Threads to value 1
Gurobi Optimizer version 12.0.2 build v12.0.2rc0 (linux64 - "Ubuntu 24.04.1 LTS")

CPU model: 13th Gen Intel(R) Core(TM) i7-1355U, instruction set [SSE2|AVX|AVX2]
Thread count: 6 physical cores, 12 logical processors, using up to 1 threads

Non-default parameters:
TimeLimit  1800
Threads  1

Academic license 2679381 - for non-commercial use only - registered to be___@poli.ufrj.br
Optimize a model with 902 rows, 1200 columns and 9739 nonzeros
Model fingerprint: 0x41fd5f60
Variable types: 0 continuous, 1200 integer (300 binary)
Coefficient statistics:
  Matrix range     [1e+00, 3e+01]
  Objective range  [1e+00, 4e+01]
  Bounds range     [1e+00, 1e+01]
  RHS range        [1e+00, 5e+02]
Found heuristic solution: objective 744.0000000
Presolve removed 0 rows and 19 columns
Presolve time: 0.18s
Presolved: 902 rows, 1181 columns, 9701 nonzeros
Variable types: 0 continuous, 1181 integer (386 binary)

Root relaxation: objective 9.307487e+02, 612 iterations, 0.14 seconds (0.04 work units)

    Nodes    |    Current Node    |     Objective Bounds      |     Work
 Expl Unexpl |  Obj  Depth IntInf | Incumbent    BestBd   Gap | It/Node Time

     0     0  930.74868    0  125  744.00000  930.74868  25.1%     -    0s
H    0     0                     746.0000000  930.74868  24.8%     -    0s
H    0     0                     807.0000000  930.74868  15.3%     -    0s
H    0     0                     870.0000000  930.74868  6.98%     -    0s
H    0     0                     874.0000000  930.74868  6.49%     -    0s
H    0     0                     892.0000000  930.74868  4.34%     -    0s
H    0     0                     893.0000000  930.74868  4.23%     -    0s
     0     0  930.26599    0  127  893.00000  930.26599  4.17%     -    0s
     0     0  930.20938    0  130  893.00000  930.20938  4.17%     -    1s
     0     0  930.20223    0  126  893.00000  930.20223  4.17%     -    1s
     0     0  929.96049    0  131  893.00000  929.96049  4.14%     -    1s
     0     0  929.95073    0  132  893.00000  929.95073  4.14%     -    1s
     0     0  929.71995    0  135  893.00000  929.71995  4.11%     -    2s
     0     0  929.67283    0  133  893.00000  929.67283  4.11%     -    2s
     0     0  929.67222    0  133  893.00000  929.67222  4.11%     -    2s
     0     0  929.64848    0  136  893.00000  929.64848  4.10%     -    2s
     0     0  929.64508    0  137  893.00000  929.64508  4.10%     -    2s
     0     0  929.63868    0  135  893.00000  929.63868  4.10%     -    2s
     0     0  929.63835    0  137  893.00000  929.63835  4.10%     -    2s
     0     0  929.63016    0  136  893.00000  929.63016  4.10%     -    2s
     0     0  929.62964    0  137  893.00000  929.62964  4.10%     -    2s
     0     0  929.62614    0  137  893.00000  929.62614  4.10%     -    3s
     0     2  929.62149    0  137  893.00000  929.62149  4.10%     -    3s
    10    12  927.02314    5  126  893.00000  928.10651  3.93%  87.2    5s
H   26    26                     895.0000000  928.10651  3.70%  57.0    6s
   299   271  915.70771   12  107  895.00000  926.95536  3.57%  33.7   10s
H  506   393                     898.0000000  926.73279  3.20%  35.0   11s
   609   461  901.88095   34   66  898.00000  926.22783  3.14%  40.3   15s
H  622   441                     899.0000000  926.22783  3.03%  40.3   15s
   738   482  908.58935   29   90  899.00000  925.90193  2.99%  45.0   20s
H  767   434                     905.0000000  924.57396  2.16%  45.9   21s
   974   473  907.35381   33   97  905.00000  922.48758  1.93%  48.9   25s
  1353   477  911.70640   26   81  905.00000  919.88491  1.64%  49.6   30s
  1837   449  908.06336   32   95  905.00000  917.67331  1.40%  49.2   35s
  2114   483  908.75775   29  106  905.00000  916.78446  1.30%  49.4   40s
  2574   562  912.69406   26  116  905.00000  915.95916  1.21%  48.7   45s
  2958   586  910.32922   25  105  905.00000  915.39869  1.15%  48.5   50s
  3593   643  908.23835   23   98  905.00000  914.24308  1.02%  47.9   55s
  4366   650  906.71111   32   96  905.00000  913.12047  0.90%  47.0   60s
  5228   614  910.59920   27   98  905.00000  912.10671  0.79%  46.4   65s
  5856   578  907.96225   23   99  905.00000  911.52823  0.72%  45.8   70s
  6302   516  909.82028   26   96  905.00000  910.93018  0.66%  45.4   75s
  6804   443     cutoff   34       905.00000  910.29381  0.58%  44.9   80s
  7495   281     cutoff   23       905.00000  909.35756  0.48%  44.1   85s

Cutting planes:
  Gomory: 3
  MIR: 6
  Zero half: 13

Explored 8054 nodes (348633 simplex iterations) in 88.63 seconds (23.19 work units)
Thread count was 1 (of 12 available processors)

Solution count 10: 905 899 898 ... 746

Optimal solution found (tolerance 1.00e-04)
Best objective 9.050000000000e+02, best bound 9.050000000000e+02, gap 0.0000%
